p cnf 13 24
13 12 -4 0
13 -10 5 0
-13 -9 -6 0
13 8 -5 0
-13 -8 4 0
-13 7 -6 0
-13 5 1 0
12 11 10 0
12 -10 7 0
-12 -10 5 0
-12 9 8 0
12 -9 -7 0
-12 9 5 0
11 -10 -6 0
-11 9 2 0
-11 9 1 0
11 -4 -1 0
10 -9 -4 0
10 -8 -4 0
-10 -4 -3 0
6 -5 4 0
-6 3 -1 0
-6 -2 -1 0
5 -4 3 0
